CMD:
./solvers/bin/cadical --plain --no-reduce -t 1600 ./data/cnfs//pdtvisgigamax3/pdtvisgigamax3.43.cnf

c --- [ banner ] -------------------------------------------------------------
c 
c CaDiCaL SAT Solver
c Copyright (c) 2016-2024
c A. Biere, M. Fleury, N. Froleyks, K. Fazekas, F. Pollitt, T. Faller
c JKU Linz, University of Freiburg, TU Wien
c 
c Version 2.1.3 5296d3d2a9bf48c154ab2acb5e44625776d821bf
c g++ (Gentoo 12.3.1_p20230526 p2) 12.3.1 20230526 -Wall -Wextra -O3 -DNDEBUG
c Sat Aug 9 07:26:21 PDT 2025 Linux cedar2.int.cedar.computecanada.ca 5.14.0-362.24.2.el9_3.x86_64 x86_64
c 
c --- [ limit ] --------------------------------------------------------------
c 
c setting time limit to 1600 seconds real time (due to '-t 1600')
c 
c --- [ parsing input ] ------------------------------------------------------
c 
c reading DIMACS file from './data/cnfs//pdtvisgigamax3/pdtvisgigamax3.43.cnf'
c opening file to read './data/cnfs//pdtvisgigamax3/pdtvisgigamax3.43.cnf'
c found 'p cnf 48196 141520' header
c parsed 141520 clauses in 0.02 seconds process time
c 
c --- [ options ] ------------------------------------------------------------
c 
c   --compact=false                (different from default 'true')
c   --decompose=false              (different from default 'true')
c   --deduplicate=false            (different from default 'true')
c   --elim=false                   (different from default 'true')
c   --probe=false                  (different from default 'true')
c   --reduce=false                 (different from default 'true')
c   --subsume=false                (different from default 'true')
c   --ternary=false                (different from default 'true')
c   --transred=false               (different from default 'true')
c   --vivify=false                 (different from default 'true')
c 
c --- [ solving ] ------------------------------------------------------------
c 
c time measured in process time since initialization
c 
c  seconds  reductions  redundant  irredundant
c         MB    restarts       trail       variables
c          level   conflicts       glue         remaining
c 
c *  0.02 25  0 0   0    0    0  0% 0 140577 47470 98%
c {  0.02 26  0 0   0    0    0  0% 0 140577 47470 98%
c i  0.02 26 37 0   0   43   38  5% 1 140577 47469 98%
c i  0.04 26 420 0   0  597  551 48% 1 140577 47449 98%
c i  0.08 27 351 0  64  826  771 46% 2 140577 47423 98%
c }  0.08 27 296 0 113 1000  930 39% 2 140577 47423 98%
c [  0.08 27  0 0 113 1000  930  0% 0 140577 47423 98%
c O  0.08 27 29 0 113 1002  932  7% 1 140577 47423 98%
c i  0.10 27 512 0 113 1386 1261 58% 3 140577 47405 98%
c i  0.13 27 662 0 114 2228 1980 76% 4 140577 47387 98%
c ]  0.15 27 578 0 114 3000 2658 67% 3 140577 47385 98%
c {  0.15 27 296 0 114 3000 2658 39% 2 140577 47385 98%
c F  0.15 27 295 0 115 3003 2661 39% 2 140577 47385 98%
c i  0.15 27 279 0 125 3063 2716 37% 2 140577 47384 98%
c i  0.15 27 278 0 126 3066 2718 37% 2 140577 47383 98%
c i  0.16 27 247 0 152 3256 2886 34% 2 140577 47382 98%
c i  0.16 27 221 0 187 3410 3033 31% 2 140577 47381 98%
c i  0.17 27 206 0 211 3520 3131 29% 2 140577 47380 98%
c i  0.17 27 206 0 211 3523 3133 29% 2 140577 47379 98%
c i  0.17 27 199 0 221 3588 3187 28% 2 140577 47378 98%
c 
c  seconds   reductions  redundant  irredundant
c         MB     restarts       trail       variables
c           level   conflicts       glue         remaining
c 
c i  0.18 27 185 0 253 3714 3307 27% 2 140577 47377 98%
c i  0.18 27 171 0 288 3908 3487 25% 2 140577 47376 98%
c i  0.19 27 161 0 316 4052 3622 24% 2 140577 47375 98%
c i  0.19 27 159 0 324 4078 3646 24% 2 140577 47374 98%
c i  0.19 27 152 0 336 4223 3783 23% 2 140577 47373 98%
c i  0.19 27 143 0 362 4426 3963 22% 2 140577 47372 98%
c i  0.21 27 134 0 423 4880 4388 21% 2 140577 47371 98%
c i  0.21 27 133 0 433 4927 4429 21% 2 140577 47370 98%
c i  0.23 27 124 0 505 5236 4713 20% 2 140577 47369 98%
c i  0.23 27 124 0 505 5241 4716 20% 2 140577 47368 98%
c i  0.25 28 117 0 567 5700 5129 20% 3 140577 47367 98%
c #  0.26 28 111 0 619 6004 5404 19% 3 140577 47367 98%
c i  0.26 28 111 0 621 6013 5411 19% 3 140577 47366 98%
c i  0.27 28 106 0 690 6421 5785 18% 3 140577 47365 98%
c i  0.28 28 106 0 709 6661 6004 19% 3 140577 47364 98%
c i  0.29 28 104 0 714 6803 6135 19% 3 140577 47363 98%
c i  0.29 28 104 0 722 6899 6222 19% 3 140577 47362 98%
c }  0.29 28 103 0 730 7000 6315 19% 3 140577 47362 98%
c [  0.29 28 578 0 730 7000 6315 67% 3 140577 47362 98%
c i  0.30 28 557 0 730 7097 6406 65% 3 140577 47333 98%
c 
c  seconds   reductions  redundant  irredundant
c         MB     restarts       trail       variables
c           level   conflicts       glue         remaining
c 
c i  0.35 28 438 0 731 8476 7584 63% 4 140577 47332 98%
c I  0.43 28 383 0 732 10005 8935 61% 5 140577 47332 98%
c i  0.44 28 378 0 732 10104 9017 61% 5 140577 47330 98%
c i  0.46 28 356 0 733 10632 9464 59% 5 140577 47307 98%
c i  0.46 28 353 0 733 10714 9535 58% 5 140577 47306 98%
c i  0.46 28 351 0 733 10782 9594 58% 5 140577 47283 98%
c i  0.47 28 348 0 733 10891 9686 58% 5 140577 47273 98%
c i  0.54 29 315 0 734 12405 10998 56% 5 140577 47272 98%
c ]  0.65 29 285 0 735 15001 13300 53% 5 140577 47272 98%
c {  0.65 29 103 0 735 15001 13300 19% 3 140577 47272 98%
c B  0.66 29 103 0 737 15007 13306 19% 3 140577 47272 98%
c i  0.69 29 97 0 856 15671 13905 18% 3 140577 47271 98%
c i  0.80 30 81 0 1231 18474 16459 17% 3 140577 47270 98%
c i  0.83 30 78 0 1312 19067 16997 17% 3 140577 47269 98%
c i  0.83 30 76 0 1342 19330 17227 16% 3 140577 47268 98%
c i  0.84 30 75 0 1355 19388 17281 16% 3 140577 47267 98%
c i  0.85 30 75 0 1400 19804 17663 16% 3 140577 47227 98%
c i  0.85 30 74 0 1412 19853 17709 16% 3 140577 47179 98%
c W  0.93 30 71 0 1567 21008 18645 16% 3 138229 47179 98%
c i  0.95 30 70 0 1586 21342 18941 16% 3 138229 47135 98%
c 
c  seconds  reductions     redundant  irredundant
c         MB    restarts          trail       variables
c          level     conflicts        glue         remaining
c 
c i  0.95 30 69 0 1608 21557 19137 16% 3 138229 47108 98%
c i  0.96 30 69 0 1618 21639 19206 16% 3 138229 46922 97%
c i  0.96 30 69 0 1618 21662 19225 16% 3 138229 46745 97%
c i  0.96 30 68 0 1618 21720 19278 16% 3 138229 46718 97%
c i  0.98 30 66 0 1666 22230 19736 16% 3 138229 46717 97%
c i  0.98 30 66 0 1672 22291 19786 16% 3 138229 46143 96%
c i  0.99 30 66 0 1673 22308 19800 16% 3 138229 46085 96%
c i  0.99 30 66 0 1674 22316 19805 16% 3 138229 46017 95%
c i  0.99 30 66 0 1674 22405 19881 16% 3 138229 46005 95%
c i  0.99 30 65 0 1681 22440 19909 16% 3 138229 45995 95%
c i  0.99 30 65 0 1681 22450 19916 16% 3 138229 45903 95%
c }  0.99 30 65 0 1681 22456 19917 16% 3 138229 45863 95%
c 0  0.99 30 65 0 1681 22456 19917 16% 3 138229 45863 95%
c 
c --- [ result ] -------------------------------------------------------------
c 
s UNSATISFIABLE
c 
c --- [ run-time profiling ] -------------------------------------------------
c 
c process time taken by individual solving procedures
c (percentage relative to process time for solving)
c 
c         0.97   99.99% search
c         0.52   53.69% unstable
c         0.42   43.66% stable
c         0.03    2.61% walk
c         0.02    2.15% parse
c         0.00    0.03% lucky
c         0.00    0.00% simplify
c   =================================
c         0.97   97.87% solve
c 
c last line shows process time for solving
c (percentage relative to total process time)
c 
c --- [ statistics ] ---------------------------------------------------------
c 
c chronological:             10952        48.77 %  of conflicts
c conflicts:                 22456     23178.09    per second
c decisions:                119849    123702.84    per second
c fixed:                      2333         4.84 %  of all variables
c learned:                   21224        94.51 %  per conflict
c learned_lits:             258441       100.00 %  learned literals
c minimized:                     0         0.00 %  learned literals
c shrunken:                  31576        12.22 %  learned literals
c minishrunken:              37397        14.47 %  learned literals
c otfs:                        591         2.63 %  of conflict
c propagations:           19875663        20.51 M  per second
c rephased:                      6      3742.67    interval
c restarts:                   1681        13.36    interval
c stabilizing:                   2        44.52 %  of conflicts
c subsumed:                   1137         0.70 %  of all clauses
c strengthened:                587         0.36 %  of all clauses
c walked:                        1     22456.00    interval
c 
c seconds are measured in process time for solving
c 
c --- [ resources ] ----------------------------------------------------------
c 
c total process time since initialization:         0.99    seconds
c total real time since initialization:            1.00    seconds
c maximum resident set size of process:           30.24    MB
c 
c --- [ shutting down ] ------------------------------------------------------
c 
c exit 20
